1 155.42 150.65
2 375.92 164.65
3 183.92 150.65
4 205.42 150.65
5 205.42 171.65
6 226.42 171.65
7 226.42 186.15
8 226.42 207.15
9 226.42 235.65
10 226.42 264.15
11 226.42 292.65
12 226.42 314.15
13 226.42 335.65
14 205.42 335.65
15 190.92 335.65
16 190.92 328.15
17 176.92 328.15
18 176.92 299.65
19 155.42 299.65
20 155.42 328.15
21 155.42 356.65
22 183.92 356.65
23 219.42 356.65
24 240.92 356.65
25 269.42 356.65
26 290.42 356.65
27 387.42 136.15
28 318.92 356.65
29 318.92 335.65
30 318.92 328.15
31 318.92 299.65
32 297.92 299.65
33 290.42 328.15
34 290.42 335.65
35 297.92 328.15
36 254.92 335.65
37 254.92 314.15
38 254.92 292.65
39 254.92 271.65
40 254.92 243.15
41 254.92 221.65
42 254.92 193.15
43 254.92 171.65
44 276.42 171.65
45 296.42 150.65
46 276.42 150.65
47 375.92 150.65
48 308.92 150.65
49 354.92 164.65
50 338.42 174.65
